
Gurobi 11.0.1 (linux64, Python) logging started Mon Mar 18 09:34:04 2024

Set parameter Username
Set parameter LogFile to value "gurobi.log"
Academic license - for non-commercial use only - expires 2025-03-14

Gurobi 11.0.1 (linux64, Python) logging started Mon Mar 18 11:00:39 2024

Set parameter Username
Set parameter LogFile to value "gurobi.log"
Academic license - for non-commercial use only - expires 2025-03-14

Gurobi 11.0.1 (linux64, Python) logging started Fri May  3 14:08:20 2024

Set parameter Username
Set parameter LogFile to value "gurobi.log"
Academic license - for non-commercial use only - expires 2025-03-14

Gurobi 11.0.1 (linux64, Python) logging started Fri May  3 15:31:32 2024

Set parameter Username
Set parameter LogFile to value "gurobi.log"
Academic license - for non-commercial use only - expires 2025-03-14
